objective value:                 0.000854840378999804
x_1_1                                               1 	(obj:0)
x_2_2                                               1 	(obj:0)
x_3_1                                               1 	(obj:0)
x_4_3                                               1 	(obj:0)
x_5_3                                               1 	(obj:0)
x_6_2                                               1 	(obj:0)
x_7_2                                               1 	(obj:0)
x_8_1                                               1 	(obj:0)
x_9_3                                               1 	(obj:0)
x_10_3                                              1 	(obj:0)
x_11_1                                              1 	(obj:0)
x_12_1                                              1 	(obj:0)
x_13_2                                              1 	(obj:0)
x_14_2                                              1 	(obj:0)
x_15_3                                              1 	(obj:0)
x_16_1                                              1 	(obj:0)
x_17_2                                              1 	(obj:0)
x_18_2                                              1 	(obj:0)
x_19_1                                              1 	(obj:0)
x_20_1                                              1 	(obj:0)
ind_1                                               1 	(obj:0)
abs_1_3                                             1 	(obj:0)
ind_2                                               1 	(obj:0)
abs_2_1                                             1 	(obj:0)
ind_3                                               1 	(obj:0)
abs_3_2                                             1 	(obj:0)
epsI                             0.000854840378999804 	(obj:1)
prodt_x_19_1_t_x_20_1_coh_1                         1 	(obj:0)
prodt_x_3_1_t_x_4_1_more_coh_1            3.177635007 	(obj:0)
prodt_x_8_1_t_x_11_1_more_coh_1          3.4143127278 	(obj:0)
prodt_x_11_1_t_x_12_1_more_coh_1         2.4171460035 	(obj:0)
prodt_x_12_1_t_x_13_1_more_coh_1         2.5068232161 	(obj:0)
prodt_x_16_1_t_x_17_1_more_coh_1         1.0715210877 	(obj:0)
prodt_x_2_2_t_x_3_2_more_coh_2           6.0748319162 	(obj:0)
prodt_x_6_2_t_x_7_2_more_coh_2       4.62542948750001 	(obj:0)
prodt_x_7_2_t_x_9_2_more_coh_2       3.71697242120002 	(obj:0)
prodt_x_13_2_t_x_15_2_more_coh_2     3.47909731830001 	(obj:0)
prodt_x_14_2_t_x_15_2_more_coh_2    0.761940655000002 	(obj:0)
prodt_x_17_2_t_x_18_2_more_coh_2         1.1770064883 	(obj:0)
prodt_x_4_3_t_x_5_3_more_coh_3           2.9658935224 	(obj:0)
prodt_x_5_3_t_x_6_3_more_coh_3           2.6828993876 	(obj:0)
prodt_x_9_3_t_x_14_3_more_coh_3          2.2928620969 	(obj:0)
prodt_x_10_3_t_x_11_3_more_coh_3         1.8640283165 	(obj:0)
prodt_x_2_2_t_x_3_1_more_irrev1_2_1    -0.65248995771874 	(obj:0)
prodt_x_3_1_t_x_4_2_more_irrev1_2_1    -3.50698568497416 	(obj:0)
prodt_x_6_2_t_x_7_1_more_irrev1_2_1    -3.74493591026295 	(obj:0)
prodt_x_7_2_t_x_10_1_more_irrev1_2_1   -0.361893420000001 	(obj:0)
prodt_x_8_1_t_x_9_2_more_irrev1_2_1    -1.31973907321425 	(obj:0)
prodt_x_11_1_t_x_13_2_more_irrev1_2_1     -2.8192783913536 	(obj:0)
prodt_x_12_1_t_x_14_2_more_irrev1_2_1   -0.313148190000001 	(obj:0)
prodt_x_13_2_t_x_17_1_more_irrev1_2_1   -0.835200535384091 	(obj:0)
prodt_x_14_2_t_x_15_1_more_irrev1_2_1    -2.19904030048805 	(obj:0)
prodt_x_16_1_t_x_20_2_more_irrev1_2_1   -0.587017818923101 	(obj:0)
prodt_x_17_2_t_x_18_1_more_irrev1_2_1   -0.143504014587586 	(obj:0)
prodt_x_18_2_t_x_19_1_more_irrev1_2_1     1.74118292361002 	(obj:0)
prodt_x_2_2_t_x_3_1_more_irrev2_2_1    0.652489957718741 	(obj:0)
prodt_x_3_1_t_x_4_2_more_irrev2_2_1     3.50698568497357 	(obj:0)
prodt_x_6_2_t_x_7_1_more_irrev2_2_1     3.74493591026295 	(obj:0)
prodt_x_7_2_t_x_10_1_more_irrev2_2_1    0.361893420000001 	(obj:0)
prodt_x_8_1_t_x_9_2_more_irrev2_2_1     1.31973907321426 	(obj:0)
prodt_x_11_1_t_x_13_2_more_irrev2_2_1      2.8192783913536 	(obj:0)
prodt_x_12_1_t_x_14_2_more_irrev2_2_1    0.313148189999984 	(obj:0)
prodt_x_13_2_t_x_17_1_more_irrev2_2_1    0.835200535384091 	(obj:0)
prodt_x_14_2_t_x_15_1_more_irrev2_2_1     2.19904030048805 	(obj:0)
prodt_x_16_1_t_x_20_2_more_irrev2_2_1    0.587017818923101 	(obj:0)
prodt_x_17_2_t_x_18_1_more_irrev2_2_1    0.143504014587586 	(obj:0)
prodt_x_18_2_t_x_19_1_more_irrev2_2_1     1.74118292361002 	(obj:0)
prodt_x_3_1_t_x_4_3_more_irrev1_3_1    0.328518014046256 	(obj:0)
prodt_x_4_3_t_x_7_1_more_irrev1_3_1           1.12288255 	(obj:0)
prodt_x_5_3_t_x_7_1_more_irrev1_3_1     2.90120190210164 	(obj:0)
prodt_x_8_1_t_x_9_3_more_irrev1_3_1     1.75154714500975 	(obj:0)
prodt_x_9_3_t_x_11_1_more_irrev1_3_1     2.80268397637269 	(obj:0)
prodt_x_10_3_t_x_12_1_more_irrev1_3_1    0.788312990678765 	(obj:0)
prodt_x_11_1_t_x_13_3_more_irrev1_3_1    0.185098475728407 	(obj:0)
prodt_x_12_1_t_x_14_3_more_irrev1_3_1    0.747168020000001 	(obj:0)
prodt_x_15_3_t_x_16_1_more_irrev1_3_1     1.66128430614591 	(obj:0)
prodt_x_3_1_t_x_4_3_more_irrev2_3_1   -0.328518014046256 	(obj:0)
prodt_x_4_3_t_x_7_1_more_irrev2_3_1          -1.12288255 	(obj:0)
prodt_x_5_3_t_x_7_1_more_irrev2_3_1    -2.90120190210164 	(obj:0)
prodt_x_8_1_t_x_9_3_more_irrev2_3_1    -1.75154714500975 	(obj:0)
prodt_x_9_3_t_x_11_1_more_irrev2_3_1    -2.80268397637269 	(obj:0)
prodt_x_10_3_t_x_12_1_more_irrev2_3_1   -0.788312990678765 	(obj:0)
prodt_x_11_1_t_x_13_3_more_irrev2_3_1   -0.185098475728407 	(obj:0)
prodt_x_12_1_t_x_14_3_more_irrev2_3_1   -0.747168020000001 	(obj:0)
prodt_x_15_3_t_x_16_1_more_irrev2_3_1    -1.66128430614591 	(obj:0)
prodt_x_2_2_t_x_4_3_more_irrev1_3_2    -2.44380419463312 	(obj:0)
prodt_x_4_3_t_x_7_2_more_irrev1_3_2    -2.21329006999999 	(obj:0)
prodt_x_5_3_t_x_7_2_more_irrev1_3_2      -0.655549734987 	(obj:0)
prodt_x_6_2_t_x_7_3_more_irrev1_3_2    -1.07585276685851 	(obj:0)
prodt_x_7_2_t_x_8_3_more_irrev1_3_2    -1.58453354000001 	(obj:0)
prodt_x_9_3_t_x_11_2_more_irrev1_3_2   -0.750682100344603 	(obj:0)
prodt_x_10_3_t_x_12_2_more_irrev1_3_2    -2.40632545360305 	(obj:0)
prodt_x_13_2_t_x_14_3_more_irrev1_3_2   -0.983630740299796 	(obj:0)
prodt_x_14_2_t_x_16_3_more_irrev1_3_2  -0.0387509024256815 	(obj:0)
prodt_x_15_3_t_x_16_2_more_irrev1_3_2     -1.4294082496852 	(obj:0)
prodt_x_2_2_t_x_4_3_more_irrev2_3_2     2.44380419463312 	(obj:0)
prodt_x_4_3_t_x_7_2_more_irrev2_3_2     2.21329006999999 	(obj:0)
prodt_x_5_3_t_x_7_2_more_irrev2_3_2    0.655549734986954 	(obj:0)
prodt_x_6_2_t_x_7_3_more_irrev2_3_2     1.07585276685851 	(obj:0)
prodt_x_7_2_t_x_8_3_more_irrev2_3_2     1.58453354000001 	(obj:0)
prodt_x_9_3_t_x_11_2_more_irrev2_3_2    0.750682100344603 	(obj:0)
prodt_x_10_3_t_x_12_2_more_irrev2_3_2     2.40632545360303 	(obj:0)
prodt_x_13_2_t_x_14_3_more_irrev2_3_2    0.983630740299796 	(obj:0)
prodt_x_14_2_t_x_16_3_more_irrev2_3_2   0.0387509024256815 	(obj:0)
prodt_x_15_3_t_x_16_2_more_irrev2_3_2      1.4294082496852 	(obj:0)
SCIP Status        : solving was interrupted [time limit reached]
Total Time         :    3600.00
  solving          :    3600.00
  presolving       :       0.06 (included in solving)
  reading          :       0.00
  copying          :       1.10 (130 #copies) (minimal 0.00, maximal 0.01, average 0.01)
Original Problem   :
  Problem name     : ../instances/Pot4/Pot4_T_20B_alpha=13.txt.spa
  Variables        : 101 (100 binary, 0 integer, 0 implicit integer, 1 continuous)
  Constraints      : 193 initial, 193 maximal
  Objective sense  : maximize
Presolved Problem  :
  Problem name     : t_../instances/Pot4/Pot4_T_20B_alpha=13.txt.spa
  Variables        : 590 (92 binary, 0 integer, 16 implicit integer, 482 continuous)
  Constraints      : 2015 initial, 5460 maximal
Presolvers         :   ExecTime  SetupTime  Calls  FixedVars   AggrVars   ChgTypes  ChgBounds   AddHoles    DelCons    AddCons   ChgSides   ChgCoefs
  boundshift       :       0.00       0.00      0          0          0          0          0          0          0          0          0          0
  components       :       0.00       0.00      1          0          0          0          0          0          0          0          0          0
  convertinttobin  :       0.00       0.00      0          0          0          0          0          0          0          0          0          0
  domcol           :       0.00       0.00      1          0          0          0          0          0          0          0          0          0
  dualagg          :       0.00       0.00      0          0          0          0          0          0          0          0          0          0
  dualinfer        :       0.00       0.00      0          0          0          0          0          0          0          0          0          0
  gateextraction   :       0.00       0.00      3          0          0          0          0          0        108         34          0          0
  implfree         :       0.00       0.00      0          0          0          0          0          0          0          0          0          0
  implics          :       0.00       0.00      4          0          0          0          0          0          0          0          0          0
  inttobinary      :       0.00       0.00      0          0          0          0          0          0          0          0          0          0
  redvub           :       0.00       0.00      0          0          0          0          0          0          0          0          0          0
  stuffing         :       0.00       0.00      1          0          0          0          0          0          0          0          0          0
  trivial          :       0.00       0.00      7          0          0          0          0          0          0          0          0          0
  tworowbnd        :       0.00       0.00      0          0          0          0          0          0          0          0          0          0
  dualfix          :       0.00       0.00      7          4          0          0          0          0          0          0          0          0
  genvbounds       :       0.00       0.00      0          0          0          0          0          0          0          0          0          0
  probing          :       0.03       0.00      1          0          0          0          4          0          0          0          0          0
  pseudoobj        :       0.00       0.00      0          0          0          0          0          0          0          0          0          0
  varbound         :       0.00       0.00      9          0          0          0          0          0         28         28          0          0
  setppc           :       0.00       0.00     12          0          0          0          0          0          0          0          0          0
  and              :       0.00       0.00      4          0         12          0          0          0         12          0          0          0
  linear           :       0.02       0.00      9          3          1          0          4          0          7          0         12         12
  logicor          :       0.00       0.00      7          0          0          0          0          0          0          0          0          0
  bounddisjunction :       0.00       0.00      0          0          0          0          0          0          0          0          0          0
  quadratic        :       0.01       0.00      2          0          0          0          0          0          0       1915          0          0
  root node        :          -          -      -          1          -          -         81          -          -          -          -          -
Constraints        :     Number  MaxNumber  #Separate #Propagate    #EnfoLP    #EnfoPS     #Check   #ResProp    Cutoffs    DomReds       Cuts    Applied      Conss   Children
  integral         :          0          0          0          0    2131604          0     461786          0          0      43126          0          0        298    4249076
  varbound         :        869        869         99   12682923       2319          0     163977    3852377      65745   87705519          0          0          0          0
  setppc           :        110+       198         99   12616740       2318          0        871    2058782      11451    5491623         12          1          0          0
  and              :         22         22      71714     368805          0          0        377     385836         13      78548        131        102          0          0
  linear           :        979        979         99   12605717       1762          0        361    1715614     192522  120469282      85902      85677          0          0
  logicor          :         35+      1055         95    3435007          0          0          0      56580       2243     167863          1          1          0          0
  bounddisjunction :          0+      2438          0    5473538          0          0          0     476999       4733    6575413          0          0          0          0
  countsols        :          0          0          0          0          3          0     297806          0          0          0          0          0          0          0
Constraint Timings :  TotalTime  SetupTime   Separate  Propagate     EnfoLP     EnfoPS      Check    ResProp    SB-Prop
  integral         :      20.85       0.00       0.00       0.00      20.77       0.00       0.08       0.00       0.00
  varbound         :      63.97       0.00       0.00      62.73       0.00       0.00       0.42       0.61       0.21
  setppc           :      36.38       0.00       0.00      35.92       0.00       0.00       0.01       0.38       0.07
  and              :       0.30       0.00       0.04       0.15       0.00       0.00       0.01       0.10       0.00
  linear           :     176.82       0.00       0.00     175.25       0.05       0.00       0.00       1.11       0.41
  logicor          :      14.96       0.00       0.00      14.94       0.00       0.00       0.00       0.01       0.01
  bounddisjunction :      78.08       0.00       0.00      77.94       0.00       0.00       0.00       0.12       0.02
  countsols        :       0.00       0.00       0.00       0.00       0.00       0.00       0.00       0.00       0.00
Propagators        : #Propagate   #ResProp    Cutoffs    DomReds
  dualfix          :          2          0          0          0
  genvbounds       :          0          0          0          0
  obbt             :          0          0          0          0
  probing          :          0          0          0          0
  pseudoobj        :   13610042          0       4364         79
  redcost          :    4684578          0         15     667768
  rootredcost      :          4          0          0          1
  vbounds          :   14814126       6953          0        168
Propagator Timings :  TotalTime  SetupTime   Presolve  Propagate    ResProp    SB-Prop
  dualfix          :       0.00       0.00       0.00       0.00       0.00       0.00
  genvbounds       :       2.04       0.00       0.00       2.04       0.00       0.00
  obbt             :       0.00       0.00       0.00       0.00       0.00       0.00
  probing          :       0.03       0.00       0.03       0.00       0.00       0.00
  pseudoobj        :       4.99       0.00       0.00       4.98       0.00       0.01
  redcost          :      21.73       0.00       0.00      21.72       0.00       0.01
  rootredcost      :       2.34       0.00       0.00       2.34       0.00       0.00
  vbounds          :       4.58       0.00       0.00       4.58       0.00       0.00
Conflict Analysis  :       Time      Calls    Success    DomReds  Conflicts   Literals    Reconvs ReconvLits   LP Iters
  propagation      :       3.79      90159      89947          -     861751       34.3       5456       45.2          -
  infeasible LP    :      11.20      84702      79973          -    1221086       37.0        115       13.1          0
  bound exceed. LP :       0.00          0          0          -          0        0.0          0        0.0          0
  strong branching :       0.00          0          0          -          0        0.0          0        0.0          0
  pseudo solution  :       0.00          0          0          -          0        0.0          0        0.0          -
  applied globally :       3.30          -          -          0     312057       19.5          -          -          -
  applied locally  :          -          -          -          0       3046       28.9          -          -          -
Separators         :   ExecTime  SetupTime      Calls    Cutoffs    DomReds       Cuts    Applied      Conss
  cut pool         :       0.00                    98          -          -       1292          -          -    (maximal pool size: 770)
  cgmip            :       0.00       0.00          0          0          0          0          0          0
  clique           :       0.01       0.00         99          0          0         35         27          0
  closecuts        :       0.00       0.00          0          0          0          0          0          0
  cmir             :       0.00       0.00         10          0          0        199        178          0
  disjunctive      :       0.00       0.00          0          0          0          0          0          0
  eccuts           :       0.00       0.00          0          0          0          0          0          0
  flowcover        :       0.19       0.00         15          0          0        256         24          0
  gomory           :       0.06       0.00         10          0          0          3          3          0
  impliedbounds    :       0.00       0.00         99          0          0        749        168          0
  intobj           :       0.00       0.00          0          0          0          0          0          0
  mcf              :       0.00       0.00          1          0          0          0          0          0
  oddcycle         :       0.00       0.00          0          0          0          0          0          0
  rapidlearning    :       0.00       0.00          0          0          0          0          0          0
  strongcg         :       0.06       0.00         20          0          0          7          3          0
  zerohalf         :       0.00       0.00          0          0          0          0          0          0
Pricers            :   ExecTime  SetupTime      Calls       Vars
  problem variables:       0.00          -          0          0
Branching Rules    :   ExecTime  SetupTime   BranchLP  BranchExt   BranchPS    Cutoffs    DomReds       Cuts      Conss   Children
  allfullstrong    :       0.00       0.00          0          0          0          0          0          0          0          0
  cloud            :       0.00       0.00          0          0          0          0          0          0          0          0
  distribution     :       0.00       0.00          0          0          0          0          0          0          0          0
  fullstrong       :       0.00       0.00          0          0          0          0          0          0          0          0
  inference        :       0.00       0.00          0          0          0          0          0          0          0          0
  leastinf         :       0.00       0.00          0          0          0          0          0          0          0          0
  mostinf          :       0.00       0.00          0          0          0          0          0          0          0          0
  multaggr         :       0.00       0.00          0          0          0          0          0          0          0          0
  nodereopt        :       0.00       0.00          0          0          0          0          0          0          0          0
  pscost           :       0.00       0.00          0          0          0          0          0          0          0          0
  random           :       0.00       0.00          0          0          0          0          0          0          0          0
  relpscost        :      19.80       0.00    2129285          0          0          0      43126          0       -137    4249076
Primal Heuristics  :   ExecTime  SetupTime      Calls      Found       Best
  LP solutions     :       0.00          -          -          3          -
  pseudo solutions :       0.00          -          -          0          -
  strong branching :       0.00          -          -          0          -
  SpaGreedy        :     322.83       0.00     297805          2          1
  actconsdiving    :       0.00       0.00          0          0          0
  bound            :       0.00       0.00          0          0          0
  clique           :       0.00       0.00          0          0          0
  coefdiving       :      25.90       0.00       9119          0          0
  crossover        :       0.77       0.00          0          0          0
  dins             :       0.00       0.00          0          0          0
  distributiondivin:      47.59       0.00       9118          0          0
  dualval          :       0.00       0.00          0          0          0
  feaspump         :      20.78       0.00       2053          0          0
  fixandinfer      :       0.00       0.00          0          0          0
  fracdiving       :      25.47       0.00       9119          0          0
  guideddiving     :      26.19       0.00       9118          0          0
  indicator        :       0.38       0.00          0          0          0
  intdiving        :       0.00       0.00          0          0          0
  intshifting      :       0.55       0.00        200          0          0
  linesearchdiving :      25.72       0.00       9118          0          0
  localbranching   :       0.00       0.00          0          0          0
  mutation         :       0.00       0.00          0          0          0
  nlpdiving        :       0.11       0.00          0          0          0
  objpscostdiving  :      20.97       0.00       2885          0          0
  octane           :       0.00       0.00          0          0          0
  ofins            :       0.00       0.00          0          0          0
  oneopt           :       0.75       0.00          3          0          0
  proximity        :       0.00       0.00          0          0          0
  pscostdiving     :      24.45       0.00       9118          0          0
  randrounding     :       1.46       0.00     163546          0          0
  rens             :       0.25       0.00          1          0          0
  reoptsols        :       0.00       0.00          0          0          0
  rins             :       4.15       0.00        107          0          0
  rootsoldiving    :      22.28       0.00       3669          0          0
  rounding         :       0.79       0.00      20439          0          0
  shiftandpropagate:       0.00       0.00          0          0          0
  shifting         :       1.61       0.00       5749          0          0
  simplerounding   :       0.43       0.00          0          0          0
  subnlp           :       0.63       0.00          0          0          0
  trivial          :       0.00       0.00          2          0          0
  trivialnegation  :       0.00       0.00          0          0          0
  trysol           :       0.72       0.00          0          0          0
  twoopt           :       0.00       0.00          0          0          0
  undercover       :       0.00       0.00          1          0          0
  vbounds          :       0.00       0.00          0          0          0
  veclendiving     :      26.91       0.00       9118          0          0
  zeroobj          :       0.00       0.00          0          0          0
  zirounding       :       0.71       0.00       1000          0          0
  other solutions  :          -          -          -          0          -
Diving Statistics  :      Calls      Nodes   LP Iters Backtracks   MinDepth   MaxDepth   AvgDepth  NLeafSols  MinSolDpt  MaxSolDpt  AvgSolDpt
  actconsdiving    :          0          -          -          -          -          -          -          -          -          -          -
  coefdiving       :       9119      64850     611642      12447         17         40       28.2          -          -          -          -
  distributiondivin:       9118      55933     600472      12272         15         37       27.3          -          -          -          -
  fracdiving       :       9119      61916     648028      14207         18         46       27.6          -          -          -          -
  guideddiving     :       9118      69730     695670      13108         18         49       28.7          -          -          -          -
  linesearchdiving :       9118      56148     636398      14241         17         38       27.0          -          -          -          -
  pscostdiving     :       9118      69241     600528      11525         19         47       28.8          -          -          -          -
  veclendiving     :       9118      62435     617922      15943         18         37       27.6          -          -          -          -
LP                 :       Time      Calls Iterations  Iter/call   Iter/sec  Time-0-It Calls-0-It
  primal LP        :       0.00         15          0       0.00          -       0.00         15
  dual LP          :    1634.86    4404393   69108712      18.38   42271.94      63.52     645014
  lex dual LP      :       0.00          0          0       0.00          -
  barrier LP       :       0.00          0          0       0.00          -       0.00          0
  diving/probing LP:     157.89     261225    6593698      25.24   41761.34
  strong branching :       6.66       7307     246010      33.67   36938.44
    (at root node) :          -         26       1853      71.27          -
  conflict analysis:       0.00          0          0       0.00          -
B&B Tree           :
  number of runs   :          1
  nodes            :    4102684 (2124538 internal, 1978146 leaves)
  nodes (total)    :    4102684 (2124538 internal, 1978146 leaves)
  nodes left       :     138288
  max depth        :         36
  max depth (total):         36
  backtracks       :    1123827 (27.4%)
  delayed cutoffs  :       8057
  repropagations   :     137702 (3106105 domain reductions, 6676 cutoffs)
  avg switch length:       6.53
  switching time   :     498.37
Root Node          :
  First LP value   : +3.00000000000000e+00
  First LP Iters   :        372
  First LP Time    :       0.00
  Final Dual Bound : +7.03784545541519e-03
  Final Root Iters :       3897
Solution           :
  Solutions found  :          5 (4 improvements)
  First Solution   : +7.74992045000006e-04   (in run 1, after 1 nodes, 0.06 seconds, depth 0, found by <SpaGreedy>)
  Gap First Sol.   :   infinite
  Gap Last Sol.    :      69.83 %
  Primal Bound     : +8.54840378999804e-04   (in run 1, after 239645 nodes, 214.65 seconds, depth 33, found by <relaxation>)
  Dual Bound       : +1.15092685097316e-03
  Gap              :      34.64 %
  Avg. Gap         :      42.65 % (153538.04 primal-dual integral)
